(set-info :smt-lib-version 2.6)
(set-logic QF_NIA)
(set-info :source |
     Constraint systems stating that a matrix interpretation is
     compatible with a rewriting system (weakly compatible with
     all rules, strictly compatible with at least one).

     Contributed by Johannes Waldmann at HTKW Leipzig.
   |)
(set-info :category "crafted")
(set-info :status sat)
(declare-fun n0 () Int)
(assert (>= n0 0))
(declare-fun n1 () Int)
(assert (>= n1 0))
(declare-fun n2 () Int)
(assert (>= n2 0))
(declare-fun n3 () Int)
(assert (>= n3 0))
(declare-fun n4 () Int)
(assert (>= n4 0))
(declare-fun n5 () Int)
(assert (>= n5 0))
(declare-fun n6 () Int)
(assert (>= n6 0))
(declare-fun n7 () Int)
(assert (>= n7 0))
(declare-fun n8 () Int)
(assert (>= n8 0))
(declare-fun n9 () Int)
(assert (>= n9 0))
(declare-fun n10 () Int)
(assert (>= n10 0))
(declare-fun n11 () Int)
(assert (>= n11 0))
(declare-fun n12 () Int)
(assert (>= n12 0))
(declare-fun n13 () Int)
(assert (>= n13 0))
(declare-fun n14 () Int)
(assert (>= n14 0))
(declare-fun n15 () Int)
(assert (>= n15 0))
(declare-fun n16 () Int)
(assert (>= n16 0))
(declare-fun n17 () Int)
(assert (>= n17 0))
(declare-fun n18 () Int)
(assert (>= n18 0))
(declare-fun n19 () Int)
(assert (>= n19 0))
(declare-fun n20 () Int)
(assert (>= n20 0))
(declare-fun n21 () Int)
(assert (>= n21 0))
(declare-fun n22 () Int)
(assert (>= n22 0))
(declare-fun n23 () Int)
(assert (>= n23 0))
(declare-fun n24 () Int)
(assert (>= n24 0))
(declare-fun n25 () Int)
(assert (>= n25 0))
(declare-fun n26 () Int)
(assert (>= n26 0))
(declare-fun n27 () Int)
(assert (>= n27 0))
(declare-fun n28 () Int)
(assert (>= n28 0))
(declare-fun n29 () Int)
(assert (>= n29 0))
(declare-fun n30 () Int)
(assert (>= n30 0))
(declare-fun n31 () Int)
(assert (>= n31 0))
(declare-fun n32 () Int)
(assert (= n32 (* n25 n26)))
(declare-fun n33 () Int)
(assert (= n33 (+ n24 n32)))
(declare-fun n34 () Int)
(assert (= n34 (* n25 n27)))
(declare-fun n35 () Int)
(assert (= n35 (* n27 n26)))
(declare-fun n36 () Int)
(assert (= n36 (+ n26 n35)))
(declare-fun n37 () Int)
(assert (= n37 (* n27 n27)))
(declare-fun n38 () Int)
(assert (= n38 (* n25 n33)))
(declare-fun n39 () Int)
(assert (= n39 (+ n24 n38)))
(declare-fun n40 () Int)
(assert (= n40 (* n25 n34)))
(declare-fun n41 () Int)
(assert (= n41 (* n9 n26)))
(declare-fun n42 () Int)
(assert (= n42 (+ n8 n41)))
(declare-fun n43 () Int)
(assert (= n43 (* n9 n27)))
(declare-fun n44 () Int)
(assert (= n44 (* n34 n33)))
(declare-fun n45 () Int)
(assert (= n45 (+ n33 n44)))
(declare-fun n46 () Int)
(assert (= n46 (* n34 n34)))
(declare-fun n47 () Int)
(assert (= n47 (* n7 n26)))
(declare-fun n48 () Int)
(assert (= n48 (+ n6 n47)))
(declare-fun n49 () Int)
(assert (= n49 (* n7 n27)))
(declare-fun n50 () Int)
(assert (= n50 (* n34 n39)))
(declare-fun n51 () Int)
(assert (= n51 (+ n33 n50)))
(declare-fun n52 () Int)
(assert (= n52 (* n34 n40)))
(declare-fun n53 () Int)
(assert (= n53 (* n11 n26)))
(declare-fun n54 () Int)
(assert (= n54 (+ n10 n53)))
(declare-fun n55 () Int)
(assert (= n55 (* n11 n27)))
(declare-fun n56 () Int)
(assert (= n56 (* n17 n16)))
(declare-fun n57 () Int)
(assert (= n57 (+ n16 n56)))
(declare-fun n58 () Int)
(assert (= n58 (* n17 n17)))
(declare-fun n59 () Int)
(assert (= n59 (* n34 n26)))
(declare-fun n60 () Int)
(assert (= n60 (+ n33 n59)))
(declare-fun n61 () Int)
(assert (= n61 (* n34 n27)))
(declare-fun n62 () Int)
(assert (= n62 (* n19 n51)))
(declare-fun n63 () Int)
(assert (= n63 (+ n18 n62)))
(declare-fun n64 () Int)
(assert (= n64 (* n19 n52)))
(declare-fun n65 () Int)
(assert (= n65 (* n23 n26)))
(declare-fun n66 () Int)
(assert (= n66 (+ n22 n65)))
(declare-fun n67 () Int)
(assert (= n67 (* n23 n27)))
(declare-fun n68 () Int)
(assert (= n68 (* n67 n45)))
(declare-fun n69 () Int)
(assert (= n69 (+ n66 n68)))
(declare-fun n70 () Int)
(assert (= n70 (* n67 n46)))
(declare-fun n71 () Int)
(assert (= n71 (* n5 n26)))
(declare-fun n72 () Int)
(assert (= n72 (+ n4 n71)))
(declare-fun n73 () Int)
(assert (= n73 (* n5 n27)))
(declare-fun n74 () Int)
(assert (= n74 (* n17 n36)))
(declare-fun n75 () Int)
(assert (= n75 (+ n16 n74)))
(declare-fun n76 () Int)
(assert (= n76 (* n17 n37)))
(declare-fun n77 () Int)
(assert (= n77 (* n34 n63)))
(declare-fun n78 () Int)
(assert (= n78 (+ n33 n77)))
(declare-fun n79 () Int)
(assert (= n79 (* n34 n64)))
(declare-fun n80 () Int)
(assert (= n80 (* n37 n69)))
(declare-fun n81 () Int)
(assert (= n81 (+ n36 n80)))
(declare-fun n82 () Int)
(assert (= n82 (* n37 n70)))
(declare-fun n83 () Int)
(assert (= n83 (* n40 n26)))
(declare-fun n84 () Int)
(assert (= n84 (+ n39 n83)))
(declare-fun n85 () Int)
(assert (= n85 (* n40 n27)))
(declare-fun n86 () Int)
(assert (= n86 (* n21 n60)))
(declare-fun n87 () Int)
(assert (= n87 (+ n20 n86)))
(declare-fun n88 () Int)
(assert (= n88 (* n21 n61)))
(declare-fun n89 () Int)
(assert (= n89 (* n11 n33)))
(declare-fun n90 () Int)
(assert (= n90 (+ n10 n89)))
(declare-fun n91 () Int)
(assert (= n91 (* n11 n34)))
(declare-fun n92 () Int)
(assert (= n92 (* n11 n36)))
(declare-fun n93 () Int)
(assert (= n93 (+ n10 n92)))
(declare-fun n94 () Int)
(assert (= n94 (* n11 n37)))
(declare-fun n95 () Int)
(assert (= n95 (* n17 n26)))
(declare-fun n96 () Int)
(assert (= n96 (+ n16 n95)))
(declare-fun n97 () Int)
(assert (= n97 (* n17 n27)))
(declare-fun n98 () Int)
(assert (= n98 (* n97 n57)))
(declare-fun n99 () Int)
(assert (= n99 (+ n96 n98)))
(declare-fun n100 () Int)
(assert (= n100 (* n97 n58)))
(declare-fun n101 () Int)
(assert (= n101 (* n100 n57)))
(declare-fun n102 () Int)
(assert (= n102 (+ n99 n101)))
(declare-fun n103 () Int)
(assert (= n103 (* n100 n58)))
(declare-fun n104 () Int)
(assert (= n104 (* n103 n26)))
(declare-fun n105 () Int)
(assert (= n105 (+ n102 n104)))
(declare-fun n106 () Int)
(assert (= n106 (* n103 n27)))
(declare-fun n107 () Int)
(assert (= n107 (* n106 n16)))
(declare-fun n108 () Int)
(assert (= n108 (+ n105 n107)))
(declare-fun n109 () Int)
(assert (= n109 (* n106 n17)))
(declare-fun n110 () Int)
(assert (= n110 (* n27 n30)))
(declare-fun n111 () Int)
(assert (= n111 (+ n26 n110)))
(declare-fun n112 () Int)
(assert (= n112 (* n27 n31)))
(declare-fun n113 () Int)
(assert (= n113 (* n76 n30)))
(declare-fun n114 () Int)
(assert (= n114 (+ n75 n113)))
(declare-fun n115 () Int)
(assert (= n115 (* n76 n31)))
(declare-fun n116 () Int)
(assert (= n116 (* n94 n26)))
(declare-fun n117 () Int)
(assert (= n117 (+ n93 n116)))
(declare-fun n118 () Int)
(assert (= n118 (* n94 n27)))
(assert (>= n90 n10))
(assert (>= n91 n11))
(declare-fun n119 () Int)
(assert (= n119 (* n55 n87)))
(declare-fun n120 () Int)
(assert (= n120 (+ n54 n119)))
(declare-fun n121 () Int)
(assert (= n121 (* n55 n88)))
(assert (>= n72 n120))
(assert (>= n73 n121))
(declare-fun n122 () Int)
(assert (= n122 (* n7 n60)))
(declare-fun n123 () Int)
(assert (= n123 (+ n6 n122)))
(declare-fun n124 () Int)
(assert (= n124 (* n7 n61)))
(assert (>= n72 n123))
(assert (>= n73 n124))
(assert (>= n72 n93))
(assert (>= n73 n94))
(declare-fun n125 () Int)
(assert (= n125 (* n91 n81)))
(declare-fun n126 () Int)
(assert (= n126 (+ n90 n125)))
(declare-fun n127 () Int)
(assert (= n127 (* n91 n82)))
(assert (>= n48 n126))
(assert (>= n49 n127))
(declare-fun n128 () Int)
(assert (= n128 (* n118 n69)))
(declare-fun n129 () Int)
(assert (= n129 (+ n117 n128)))
(declare-fun n130 () Int)
(assert (= n130 (* n118 n70)))
(assert (>= n48 n129))
(assert (>= n49 n130))
(declare-fun n131 () Int)
(assert (= n131 (* n43 n45)))
(declare-fun n132 () Int)
(assert (= n132 (+ n42 n131)))
(declare-fun n133 () Int)
(assert (= n133 (* n43 n46)))
(assert (>= n48 n132))
(assert (>= n49 n133))
(declare-fun n134 () Int)
(assert (= n134 (* n55 n33)))
(declare-fun n135 () Int)
(assert (= n135 (+ n54 n134)))
(declare-fun n136 () Int)
(assert (= n136 (* n55 n34)))
(assert (>= n48 n135))
(assert (>= n49 n136))
(assert (>= n48 n54))
(assert (>= n49 n55))
(declare-fun n137 () Int)
(assert (= n137 (* n94 n78)))
(declare-fun n138 () Int)
(assert (= n138 (+ n93 n137)))
(declare-fun n139 () Int)
(assert (= n139 (* n94 n79)))
(assert (>= n42 n138))
(assert (>= n43 n139))
(declare-fun n140 () Int)
(assert (= n140 (* n55 n63)))
(declare-fun n141 () Int)
(assert (= n141 (+ n54 n140)))
(declare-fun n142 () Int)
(assert (= n142 (* n55 n64)))
(assert (>= n42 n141))
(assert (>= n43 n142))
(declare-fun n143 () Int)
(assert (= n143 (* n5 n51)))
(declare-fun n144 () Int)
(assert (= n144 (+ n4 n143)))
(declare-fun n145 () Int)
(assert (= n145 (* n5 n52)))
(assert (>= n42 n144))
(assert (>= n43 n145))
(declare-fun n146 () Int)
(assert (= n146 (* n55 n39)))
(declare-fun n147 () Int)
(assert (= n147 (+ n54 n146)))
(declare-fun n148 () Int)
(assert (= n148 (* n55 n40)))
(assert (>= n42 n147))
(assert (>= n43 n148))
(assert (>= n42 n90))
(assert (>= n43 n91))
(assert (>= n42 n54))
(assert (>= n43 n55))
(declare-fun n149 () Int)
(assert (= n149 (* n15 n36)))
(declare-fun n150 () Int)
(assert (= n150 (+ n14 n149)))
(declare-fun n151 () Int)
(assert (= n151 (* n15 n37)))
(declare-fun n152 () Int)
(assert (= n152 (* n15 n84)))
(declare-fun n153 () Int)
(assert (= n153 (+ n14 n152)))
(declare-fun n154 () Int)
(assert (= n154 (* n15 n85)))
(assert (>= n150 n153))
(assert (>= n151 n154))
(declare-fun n155 () Int)
(assert (= n155 (* n25 n16)))
(declare-fun n156 () Int)
(assert (= n156 (+ n24 n155)))
(declare-fun n157 () Int)
(assert (= n157 (* n25 n17)))
(declare-fun n158 () Int)
(assert (= n158 (* n76 n24)))
(declare-fun n159 () Int)
(assert (= n159 (+ n75 n158)))
(declare-fun n160 () Int)
(assert (= n160 (* n76 n25)))
(assert (>= n156 n159))
(assert (>= n157 n160))
(assert true)
(assert (>= n34 1))
(assert (>= n39 n24))
(assert (>= n40 n25))
(declare-fun n161 () Int)
(assert (= n161 (* n19 n26)))
(declare-fun n162 () Int)
(assert (= n162 (+ n18 n161)))
(declare-fun n163 () Int)
(assert (= n163 (* n19 n27)))
(declare-fun n164 () Int)
(assert (= n164 (* n34 n87)))
(declare-fun n165 () Int)
(assert (= n165 (+ n33 n164)))
(declare-fun n166 () Int)
(assert (= n166 (* n34 n88)))
(assert (>= n162 n165))
(assert (>= n163 n166))
(declare-fun n167 () Int)
(assert (= n167 (* n21 n26)))
(declare-fun n168 () Int)
(assert (= n168 (+ n20 n167)))
(declare-fun n169 () Int)
(assert (= n169 (* n21 n27)))
(declare-fun n170 () Int)
(assert (= n170 (* n40 n81)))
(declare-fun n171 () Int)
(assert (= n171 (+ n39 n170)))
(declare-fun n172 () Int)
(assert (= n172 (* n40 n82)))
(assert (>= n168 n171))
(assert (>= n169 n172))
(declare-fun n173 () Int)
(assert (= n173 (* n61 n78)))
(declare-fun n174 () Int)
(assert (= n174 (+ n60 n173)))
(declare-fun n175 () Int)
(assert (= n175 (* n61 n79)))
(assert (>= n66 n174))
(assert (>= n67 n175))
(declare-fun n176 () Int)
(assert (= n176 (* n31 n16)))
(declare-fun n177 () Int)
(assert (= n177 (+ n30 n176)))
(declare-fun n178 () Int)
(assert (= n178 (* n31 n17)))
(declare-fun n179 () Int)
(assert (= n179 (* n115 n45)))
(declare-fun n180 () Int)
(assert (= n180 (+ n114 n179)))
(declare-fun n181 () Int)
(assert (= n181 (* n115 n46)))
(assert (>= n177 n180))
(assert (>= n178 n181))
(declare-fun n182 () Int)
(assert (= n182 (* n31 n36)))
(declare-fun n183 () Int)
(assert (= n183 (+ n30 n182)))
(declare-fun n184 () Int)
(assert (= n184 (* n31 n37)))
(declare-fun n185 () Int)
(assert (= n185 (* n112 n84)))
(declare-fun n186 () Int)
(assert (= n186 (+ n111 n185)))
(declare-fun n187 () Int)
(assert (= n187 (* n112 n85)))
(assert (>= n183 n186))
(assert (>= n184 n187))
(declare-fun n188 () Int)
(assert (= n188 (* n29 n16)))
(declare-fun n189 () Int)
(assert (= n189 (+ n28 n188)))
(declare-fun n190 () Int)
(assert (= n190 (* n29 n17)))
(declare-fun n191 () Int)
(assert (= n191 (* n109 n28)))
(declare-fun n192 () Int)
(assert (= n192 (+ n108 n191)))
(declare-fun n193 () Int)
(assert (= n193 (* n109 n29)))
(assert (>= n189 n192))
(assert (>= n190 n193))
(assert (or (> n90 n10) (> n72 n120) (> n72 n123) (> n72 n93) (> n48 n126) (> n48 n129) (> n48 n132) (> n48 n135) (> n48 n54) (> n42 n138) (> n42 n141) (> n42 n144) (> n42 n147) (> n42 n90) (> n42 n54) (> n150 n153)))
(assert (<= n0 10))
(assert (<= n1 10))
(assert (<= n10 10))
(assert (<= 0 n100))
(assert (<= n100 10))
(assert (<= 0 n101))
(assert (<= n101 10))
(assert (<= 0 n102))
(assert (<= n102 10))
(assert (<= 0 n103))
(assert (<= n103 10))
(assert (<= 0 n104))
(assert (<= n104 10))
(assert (<= 0 n105))
(assert (<= n105 10))
(assert (<= 0 n106))
(assert (<= n106 10))
(assert (<= 0 n107))
(assert (<= n107 10))
(assert (<= 0 n108))
(assert (<= n108 10))
(assert (<= 0 n109))
(assert (<= n109 10))
(assert (<= n11 10))
(assert (<= 0 n110))
(assert (<= n110 10))
(assert (<= 0 n111))
(assert (<= n111 10))
(assert (<= 0 n112))
(assert (<= n112 10))
(assert (<= 0 n113))
(assert (<= n113 10))
(assert (<= 0 n114))
(assert (<= n114 10))
(assert (<= 0 n115))
(assert (<= n115 10))
(assert (<= 0 n116))
(assert (<= n116 10))
(assert (<= 0 n117))
(assert (<= n117 10))
(assert (<= 0 n118))
(assert (<= n118 10))
(assert (<= 0 n119))
(assert (<= n119 10))
(assert (<= n12 10))
(assert (<= 0 n120))
(assert (<= n120 10))
(assert (<= 0 n121))
(assert (<= n121 10))
(assert (<= 0 n122))
(assert (<= n122 10))
(assert (<= 0 n123))
(assert (<= n123 10))
(assert (<= 0 n124))
(assert (<= n124 10))
(assert (<= 0 n125))
(assert (<= n125 10))
(assert (<= 0 n126))
(assert (<= n126 10))
(assert (<= 0 n127))
(assert (<= n127 10))
(assert (<= 0 n128))
(assert (<= n128 10))
(assert (<= 0 n129))
(assert (<= n129 10))
(assert (<= n13 10))
(assert (<= 0 n130))
(assert (<= n130 10))
(assert (<= 0 n131))
(assert (<= n131 10))
(assert (<= 0 n132))
(assert (<= n132 10))
(assert (<= 0 n133))
(assert (<= n133 10))
(assert (<= 0 n134))
(assert (<= n134 10))
(assert (<= 0 n135))
(assert (<= n135 10))
(assert (<= 0 n136))
(assert (<= n136 10))
(assert (<= 0 n137))
(assert (<= n137 10))
(assert (<= 0 n138))
(assert (<= n138 10))
(assert (<= 0 n139))
(assert (<= n139 10))
(assert (<= n14 10))
(assert (<= 0 n140))
(assert (<= n140 10))
(assert (<= 0 n141))
(assert (<= n141 10))
(assert (<= 0 n142))
(assert (<= n142 10))
(assert (<= 0 n143))
(assert (<= n143 10))
(assert (<= 0 n144))
(assert (<= n144 10))
(assert (<= 0 n145))
(assert (<= n145 10))
(assert (<= 0 n146))
(assert (<= n146 10))
(assert (<= 0 n147))
(assert (<= n147 10))
(assert (<= 0 n148))
(assert (<= n148 10))
(assert (<= 0 n149))
(assert (<= n149 10))
(assert (<= n15 10))
(assert (<= 0 n150))
(assert (<= n150 10))
(assert (<= 0 n151))
(assert (<= n151 10))
(assert (<= 0 n152))
(assert (<= n152 10))
(assert (<= 0 n153))
(assert (<= n153 10))
(assert (<= 0 n154))
(assert (<= n154 10))
(assert (<= 0 n155))
(assert (<= n155 10))
(assert (<= 0 n156))
(assert (<= n156 10))
(assert (<= 0 n157))
(assert (<= n157 10))
(assert (<= 0 n158))
(assert (<= n158 10))
(assert (<= 0 n159))
(assert (<= n159 10))
(assert (<= n16 10))
(assert (<= 0 n160))
(assert (<= n160 10))
(assert (<= 0 n161))
(assert (<= n161 10))
(assert (<= 0 n162))
(assert (<= n162 10))
(assert (<= 0 n163))
(assert (<= n163 10))
(assert (<= 0 n164))
(assert (<= n164 10))
(assert (<= 0 n165))
(assert (<= n165 10))
(assert (<= 0 n166))
(assert (<= n166 10))
(assert (<= 0 n167))
(assert (<= n167 10))
(assert (<= 0 n168))
(assert (<= n168 10))
(assert (<= 0 n169))
(assert (<= n169 10))
(assert (<= n17 10))
(assert (<= 0 n170))
(assert (<= n170 10))
(assert (<= 0 n171))
(assert (<= n171 10))
(assert (<= 0 n172))
(assert (<= n172 10))
(assert (<= 0 n173))
(assert (<= n173 10))
(assert (<= 0 n174))
(assert (<= n174 10))
(assert (<= 0 n175))
(assert (<= n175 10))
(assert (<= 0 n176))
(assert (<= n176 10))
(assert (<= 0 n177))
(assert (<= n177 10))
(assert (<= 0 n178))
(assert (<= n178 10))
(assert (<= 0 n179))
(assert (<= n179 10))
(assert (<= n18 10))
(assert (<= 0 n180))
(assert (<= n180 10))
(assert (<= 0 n181))
(assert (<= n181 10))
(assert (<= 0 n182))
(assert (<= n182 10))
(assert (<= 0 n183))
(assert (<= n183 10))
(assert (<= 0 n184))
(assert (<= n184 10))
(assert (<= 0 n185))
(assert (<= n185 10))
(assert (<= 0 n186))
(assert (<= n186 10))
(assert (<= 0 n187))
(assert (<= n187 10))
(assert (<= 0 n188))
(assert (<= n188 10))
(assert (<= 0 n189))
(assert (<= n189 10))
(assert (<= n19 10))
(assert (<= 0 n190))
(assert (<= n190 10))
(assert (<= 0 n191))
(assert (<= n191 10))
(assert (<= 0 n192))
(assert (<= n192 10))
(assert (<= 0 n193))
(assert (<= n193 10))
(assert (<= n2 10))
(assert (<= n20 10))
(assert (<= n21 10))
(assert (<= n22 10))
(assert (<= n23 10))
(assert (<= n24 10))
(assert (<= n25 10))
(assert (<= n26 10))
(assert (<= n27 10))
(assert (<= n28 10))
(assert (<= n29 10))
(assert (<= n3 10))
(assert (<= n30 10))
(assert (<= n31 10))
(assert (<= 0 n32))
(assert (<= n32 10))
(assert (<= 0 n33))
(assert (<= n33 10))
(assert (<= n34 10))
(assert (<= 0 n35))
(assert (<= n35 10))
(assert (<= 0 n36))
(assert (<= n36 10))
(assert (<= 0 n37))
(assert (<= n37 10))
(assert (<= 0 n38))
(assert (<= n38 10))
(assert (<= 0 n39))
(assert (<= n39 10))
(assert (<= n4 10))
(assert (<= 0 n40))
(assert (<= n40 10))
(assert (<= 0 n41))
(assert (<= n41 10))
(assert (<= 0 n42))
(assert (<= n42 10))
(assert (<= 0 n43))
(assert (<= n43 10))
(assert (<= 0 n44))
(assert (<= n44 10))
(assert (<= 0 n45))
(assert (<= n45 10))
(assert (<= 0 n46))
(assert (<= n46 10))
(assert (<= 0 n47))
(assert (<= n47 10))
(assert (<= 0 n48))
(assert (<= n48 10))
(assert (<= 0 n49))
(assert (<= n49 10))
(assert (<= n5 10))
(assert (<= 0 n50))
(assert (<= n50 10))
(assert (<= 0 n51))
(assert (<= n51 10))
(assert (<= 0 n52))
(assert (<= n52 10))
(assert (<= 0 n53))
(assert (<= n53 10))
(assert (<= 0 n54))
(assert (<= n54 10))
(assert (<= 0 n55))
(assert (<= n55 10))
(assert (<= 0 n56))
(assert (<= n56 10))
(assert (<= 0 n57))
(assert (<= n57 10))
(assert (<= 0 n58))
(assert (<= n58 10))
(assert (<= 0 n59))
(assert (<= n59 10))
(assert (<= n6 10))
(assert (<= 0 n60))
(assert (<= n60 10))
(assert (<= 0 n61))
(assert (<= n61 10))
(assert (<= 0 n62))
(assert (<= n62 10))
(assert (<= 0 n63))
(assert (<= n63 10))
(assert (<= 0 n64))
(assert (<= n64 10))
(assert (<= 0 n65))
(assert (<= n65 10))
(assert (<= 0 n66))
(assert (<= n66 10))
(assert (<= 0 n67))
(assert (<= n67 10))
(assert (<= 0 n68))
(assert (<= n68 10))
(assert (<= 0 n69))
(assert (<= n69 10))
(assert (<= n7 10))
(assert (<= 0 n70))
(assert (<= n70 10))
(assert (<= 0 n71))
(assert (<= n71 10))
(assert (<= 0 n72))
(assert (<= n72 10))
(assert (<= 0 n73))
(assert (<= n73 10))
(assert (<= 0 n74))
(assert (<= n74 10))
(assert (<= 0 n75))
(assert (<= n75 10))
(assert (<= 0 n76))
(assert (<= n76 10))
(assert (<= 0 n77))
(assert (<= n77 10))
(assert (<= 0 n78))
(assert (<= n78 10))
(assert (<= 0 n79))
(assert (<= n79 10))
(assert (<= n8 10))
(assert (<= 0 n80))
(assert (<= n80 10))
(assert (<= 0 n81))
(assert (<= n81 10))
(assert (<= 0 n82))
(assert (<= n82 10))
(assert (<= 0 n83))
(assert (<= n83 10))
(assert (<= 0 n84))
(assert (<= n84 10))
(assert (<= 0 n85))
(assert (<= n85 10))
(assert (<= 0 n86))
(assert (<= n86 10))
(assert (<= 0 n87))
(assert (<= n87 10))
(assert (<= 0 n88))
(assert (<= n88 10))
(assert (<= 0 n89))
(assert (<= n89 10))
(assert (<= n9 10))
(assert (<= 0 n90))
(assert (<= n90 10))
(assert (<= 0 n91))
(assert (<= n91 10))
(assert (<= 0 n92))
(assert (<= n92 10))
(assert (<= 0 n93))
(assert (<= n93 10))
(assert (<= 0 n94))
(assert (<= n94 10))
(assert (<= 0 n95))
(assert (<= n95 10))
(assert (<= 0 n96))
(assert (<= n96 10))
(assert (<= 0 n97))
(assert (<= n97 10))
(assert (<= 0 n98))
(assert (<= n98 10))
(assert (<= 0 n99))
(assert (<= n99 10))
(check-sat)
(exit)
